
Gurobi 9.0.1 (linux64) logging started Thu Apr 30 06:08:48 2020

Gurobi Optimizer version 9.0.1 build v9.0.1rc0 (linux64)
Optimize a model with 1898 rows, 2120 columns and 19440 nonzeros
Model fingerprint: 0xceeb87db
Variable types: 0 continuous, 2120 integer (2106 binary)
Coefficient statistics:
  Matrix range     [1e+00, 7e+00]
  Objective range  [6e+00, 1e+02]
  Bounds range     [1e+00, 1e+00]
  RHS range        [1e+00, 1e+00]

User MIP start produced solution with objective 557 (0.01s)
Loaded user MIP start with objective 557

Presolve removed 1296 rows and 1377 columns
Presolve time: 1.37s
Presolved: 602 rows, 743 columns, 6404 nonzeros
Found heuristic solution: objective 527.0000000
Variable types: 0 continuous, 743 integer (743 binary)

Root relaxation: objective 4.269211e+02, 292 iterations, 0.01 seconds

    Nodes    |    Current Node    |     Objective Bounds      |     Work
 Expl Unexpl |  Obj  Depth IntInf | Incumbent    BestBd   Gap | It/Node Time

     0     0  426.92105    0  137  527.00000  426.92105  19.0%     -    1s
     0     0  431.12375    0  140  527.00000  431.12375  18.2%     -    1s
     0     0  431.43293    0  145  527.00000  431.43293  18.1%     -    1s
     0     0  433.32363    0  149  527.00000  433.32363  17.8%     -    1s
     0     0  433.37959    0  150  527.00000  433.37959  17.8%     -    1s
     0     0  433.39086    0  149  527.00000  433.39086  17.8%     -    1s
     0     0  435.24157    0  143  527.00000  435.24157  17.4%     -    1s
     0     0  435.36896    0  145  527.00000  435.36896  17.4%     -    1s
     0     0  435.38741    0  148  527.00000  435.38741  17.4%     -    1s
     0     0  436.34451    0  147  527.00000  436.34451  17.2%     -    1s
H    0     0                     499.0000000  436.34451  12.6%     -    1s
     0     0  436.41852    0  145  499.00000  436.41852  12.5%     -    1s
     0     0  436.72366    0  144  499.00000  436.72366  12.5%     -    2s
     0     0  436.72459    0  143  499.00000  436.72459  12.5%     -    2s
     0     0  437.23561    0  157  499.00000  437.23561  12.4%     -    2s
     0     0  437.35564    0  156  499.00000  437.35564  12.4%     -    2s
     0     0  437.38217    0  158  499.00000  437.38217  12.3%     -    2s
     0     0  437.38217    0  159  499.00000  437.38217  12.3%     -    2s
     0     0  437.65466    0  153  499.00000  437.65466  12.3%     -    2s
     0     0  437.65844    0  154  499.00000  437.65844  12.3%     -    2s
     0     0  437.72866    0  148  499.00000  437.72866  12.3%     -    2s
     0     0  438.46533    0  150  499.00000  438.46533  12.1%     -    2s
     0     0  438.46784    0  151  499.00000  438.46784  12.1%     -    2s
     0     0  439.23491    0  155  499.00000  439.23491  12.0%     -    2s
     0     0  439.23491    0  157  499.00000  439.23491  12.0%     -    2s
     0     0  439.96957    0  160  499.00000  439.96957  11.8%     -    2s
     0     0  439.97035    0  162  499.00000  439.97035  11.8%     -    2s
     0     0  440.56400    0  151  499.00000  440.56400  11.7%     -    2s
     0     0  440.59793    0  154  499.00000  440.59793  11.7%     -    2s
     0     0  440.60483    0  156  499.00000  440.60483  11.7%     -    2s
     0     0  440.76694    0  167  499.00000  440.76694  11.7%     -    2s
     0     0  440.80938    0  160  499.00000  440.80938  11.7%     -    2s
     0     0  440.80938    0  161  499.00000  440.80938  11.7%     -    2s
     0     0  440.92486    0  158  499.00000  440.92486  11.6%     -    2s
H    0     0                     492.0000000  440.92486  10.4%     -    2s
     0     0  440.92486    0  159  492.00000  440.92486  10.4%     -    2s
     0     0  440.92486    0  152  492.00000  440.92486  10.4%     -    2s
     0     0  441.09575    0  123  492.00000  441.09575  10.3%     -    2s
     0     0  441.09575    0  146  492.00000  441.09575  10.3%     -    2s
     0     0  441.09575    0  118  492.00000  441.09575  10.3%     -    2s
     0     0  441.34689    0  141  492.00000  441.34689  10.3%     -    2s
     0     0  441.35226    0  149  492.00000  441.35226  10.3%     -    2s
     0     0  441.35641    0  143  492.00000  441.35641  10.3%     -    2s
     0     0  441.35819    0  146  492.00000  441.35819  10.3%     -    2s
     0     0  441.66010    0  130  492.00000  441.66010  10.2%     -    2s
H    0     0                     491.0000000  441.66010  10.0%     -    2s
     0     0  441.67064    0  156  491.00000  441.67064  10.0%     -    2s
     0     0  442.01006    0  147  491.00000  442.01006  10.0%     -    3s
     0     0  442.11050    0  154  491.00000  442.11050  10.0%     -    3s
     0     0  442.11487    0  154  491.00000  442.11487  10.0%     -    3s
     0     0  442.57883    0  161  491.00000  442.57883  9.86%     -    3s
     0     0  442.58596    0  162  491.00000  442.58596  9.86%     -    3s
     0     0  442.92587    0  161  491.00000  442.92587  9.79%     -    3s
     0     0  442.92766    0  162  491.00000  442.92766  9.79%     -    3s
     0     0  442.97787    0  156  491.00000  442.97787  9.78%     -    3s
     0     0  442.97787    0  151  491.00000  442.97787  9.78%     -    3s
H    0     0                     478.0000000  442.97787  7.33%     -    3s
H    0     0                     461.0000000  443.34009  3.83%     -    3s
     0     0  443.34009    0  102  461.00000  443.34009  3.83%     -    3s
     0     0  448.68750    0  106  461.00000  448.68750  2.67%     -    3s
     0     0  449.50625    0  100  461.00000  449.50625  2.49%     -    3s
     0     0  449.66404    0  107  461.00000  449.66404  2.46%     -    3s
     0     0  449.72401    0  106  461.00000  449.72401  2.45%     -    3s
     0     0  458.60000    0   84  461.00000  458.60000  0.52%     -    3s
     0     0     cutoff    0       461.00000  461.00000  0.00%     -    3s

Cutting planes:
  Gomory: 2
  Clique: 14
  MIR: 5
  StrongCG: 1
  Zero half: 15
  RLT: 1

Explored 1 nodes (3311 simplex iterations) in 3.56 seconds
Thread count was 1 (of 40 available processors)

Solution count 7: 461 478 491 ... 557

Optimal solution found (tolerance 1.00e-04)
Best objective 4.610000000000e+02, best bound 4.610000000000e+02, gap 0.0000%

User-callback calls 1095, time in user-callback 0.00 sec
